c This is an instance of the heur track of PACE 2020 Challenge, see https://pacechallenge.org/2020/ 
c TYPE: infrastracture 
c ORIGIN: https://gitlab.com/rvb/mwcarp-ob 
c DESCRIPTION: a road network from the Ob generator by René van Bevern, Christian Komusiewicz, and Manuel Sorge (cities that are divided into several components by a river) 
p tdp 277 502
1 124
1 139
1 141
1 154
124 108
124 125
2 3
2 20
2 140
3 4
3 38
4 21
4 5
21 39
21 22
6 5
6 7
6 23
5 22
7 24
7 8
24 23
24 25
24 43
8 25
8 9
25 43
25 44
25 9
25 26
9 10
9 26
10 11
10 27
10 28
11 12
11 29
12 30
12 29
30 29
30 49
30 31
29 47
29 28
29 48
13 14
13 31
14 32
14 15
31 51
31 32
32 51
15 52
15 16
18 17
18 35
17 34
17 16
19 20
19 140
19 36
20 37
22 23
22 40
23 41
43 42
43 61
43 44
44 45
44 62
26 45
26 27
45 27
45 63
45 46
27 28
28 47
47 46
47 48
47 64
51 52
51 67
33 53
33 34
33 16
53 52
53 54
53 69
34 35
34 54
35 55
55 54
55 71
36 56
36 37
56 72
56 57
37 38
37 57
38 39
39 40
39 58
40 41
41 42
41 59
42 60
62 79
62 61
62 63
63 80
46 81
48 65
48 49
49 50
49 66
50 85
66 65
66 84
85 84
52 68
54 70
72 73
72 91
58 57
58 75
57 74
60 59
60 77
60 61
59 76
61 78
79 78
79 80
80 94
80 81
64 65
64 82
65 83
67 86
67 68
86 97
86 87
68 69
68 87
69 88
69 70
88 87
88 98
88 89
70 89
70 71
71 90
90 89
90 100
73 92
73 74
74 75
74 92
74 93
75 76
75 105
92 101
92 93
92 102
92 91
93 103
76 105
76 77
76 106
105 104
105 121
105 106
77 78
78 107
107 106
107 123
107 108
94 95
94 108
81 82
82 83
82 95
83 84
84 96
97 98
97 113
97 96
89 99
91 101
101 118
101 102
101 133
95 110
96 111
98 115
98 99
99 100
99 116
100 117
118 134
118 133
118 103
118 135
118 102
102 103
103 119
103 104
119 120
119 135
104 120
121 120
121 137
121 122
106 122
123 139
123 122
108 109
109 110
109 125
110 111
110 126
111 127
126 125
126 142
126 127
113 112
113 114
113 128
112 144
114 115
114 129
115 130
115 116
130 129
130 131
130 147
116 131
116 117
131 148
131 132
117 132
134 133
134 135
134 151
133 150
120 136
137 138
137 153
137 136
122 138
125 141
141 155
141 142
127 143
128 129
128 145
129 146
146 145
146 147
146 159
132 149
149 162
149 148
135 152
135 136
138 139
138 168
138 167
153 152
153 167
139 169
139 168
142 143
142 156
144 145
145 158
145 159
158 157
158 174
159 176
159 174
159 147
159 175
147 160
147 148
160 176
160 161
148 161
150 163
150 151
163 179
163 164
151 164
151 152
152 165
165 164
165 166
165 180
165 181
154 155
154 170
155 156
155 171
156 172
157 173
173 184
173 174
176 175
176 177
176 188
161 162
161 177
162 178
178 177
178 190
164 180
166 167
166 182
167 168
167 183
168 169
168 197
169 199
169 170
170 171
170 200
171 201
171 172
174 185
174 175
174 186
175 187
177 189
190 210
190 189
179 191
179 180
180 192
180 191
180 181
192 191
192 212
192 193
181 193
181 182
193 213
193 194
182 194
182 183
194 195
183 195
195 214
195 196
184 185
184 204
185 186
185 204
187 188
187 207
187 186
188 208
188 189
208 209
208 227
208 207
189 209
191 211
212 231
212 211
212 213
196 197
196 215
197 198
197 216
215 234
215 216
215 214
198 199
198 217
199 218
199 200
218 217
218 219
218 237
200 201
200 219
201 220
201 202
220 221
220 219
220 239
202 203
202 222
202 221
202 172
203 222
222 241
222 221
204 223
204 205
206 205
206 207
206 225
206 186
205 224
207 226
226 227
226 245
226 225
209 228
209 210
227 246
227 228
228 229
228 247
210 229
211 230
213 214
213 232
214 233
233 252
233 234
233 232
234 265
234 235
216 217
216 235
217 236
235 266
235 236
236 237
236 267
219 238
221 240
223 224
223 242
224 225
224 243
225 244
244 245
244 258
244 259
244 243
246 247
246 260
246 245
229 248
248 247
248 277
230 231
230 249
231 232
231 250
232 251
252 264
252 251
266 265
266 267
237 268
237 238
238 253
238 239
253 269
253 254
239 254
239 240
254 270
254 255
240 241
240 255
241 256
241 242
255 271
255 256
242 243
242 257
247 276
249 261
249 250
261 262
250 251
250 262
251 263
262 263
263 264
264 265
269 268
269 270
270 271
271 272
256 272
257 273
273 274
258 259
258 274
259 260
259 275
260 275
267 268
274 275
275 276
276 277
